Geographic Exponential Decay
80 107 44 232 218 155 115 224 258 246 291 117 163 114 145 13 42 130 110 101 94 279 153 178 225 168 4 287 253 63 303 174 314 311 57 200 300 26 143 138 134 203 50 70 112 2 60 151 171 294 124 135 188 123 95 280 80 266 208 269 239 214 78 111 67 263 317 160 254 318 131 62 183 36 264 210 31 184 0 37 267
p edge 320 322
e 0 165 6.0
e 0 117 35.0
e 0 189 26.0
e 1 205 9.0
e 1 0 97.0
e 2 93 14.0
e 2 185 72.0
e 2 222 47.0
e 2 1 93.0
e 3 233 5.0
e 3 2 4.0
e 4 60 35.0
e 4 45 55.0
e 4 232 58.0
e 5 215 5.0
e 5 3 2.0
e 6 16 1.0
e 6 5 2.0
e 7 8 5.0
e 7 6 1.0
e 9 250 1.0
e 9 7 1.0
e 10 48 1.0
e 10 9 4.0
e 11 234 1.0
e 11 10 5.0
e 12 311 86.0
e 12 11 1.0
e 13 60 53.0
e 13 235 88.0
e 13 17 12.0
e 14 195 1.0
e 14 12 2.0
e 15 213 1.0
e 15 14 1.0
e 18 119 8.0
e 18 15 7.0
e 19 307 1.0
e 19 18 8.0
e 20 96 11.0
e 20 19 8.0
e 21 314 47.0
e 22 182 1.0
e 22 20 11.0
e 23 218 80.0
e 24 236 1.0
e 24 22 1.0
e 25 51 1.0
e 25 24 1.0
e 26 217 100.0
e 26 192 37.0
e 26 27 30.0
e 26 25 77.0
e 28 275 1.0
e 28 26 19.0
e 29 30 5.0
e 29 28 2.0
e 31 202 42.0
e 31 227 19.0
e 31 88 37.0
e 31 29 28.0
e 32 259 1.0
e 32 31 70.0
e 33 157 1.0
e 33 32 3.0
e 34 248 7.0
e 34 33 1.0
e 35 291 70.0
e 35 34 2.0
e 36 92 30.0
e 36 70 84.0
e 36 173 18.0
e 37 204 89.0
e 37 45 45.0
e 37 44 51.0
e 38 146 6.0
e 38 35 11.0
e 39 240 1.0
e 39 38 1.0
e 40 41 1.0
e 40 39 5.0
e 42 223 41.0
e 42 43 30.0
e 42 111 32.0
e 44 167 4.0
e 44 211 74.0
e 46 47 1.0
e 46 40 5.0
e 49 73 11.0
e 49 46 1.0
e 50 115 91.0
e 50 130 28.0
e 50 237 76.0
e 52 147 5.0
e 52 49 5.0
e 53 54 4.0
e 53 52 4.0
e 55 256 2.0
e 55 53 1.0
e 56 246 38.0
e 57 179 96.0
e 57 279 78.0
e 57 70 76.0
e 58 238 45.0
e 58 86 2.0
e 58 55 13.0
e 59 60 25.0
e 61 62 92.0
e 61 58 39.0
e 62 63 20.0
e 62 229 59.0
e 63 299 21.0
e 63 196 31.0
e 64 133 1.0
e 64 61 2.0
e 65 145 54.0
e 66 264 47.0
e 67 239 48.0
e 67 68 73.0
e 67 306 9.0
e 67 64 76.0
e 69 160 13.0
e 69 67 40.0
e 70 272 46.0
e 71 300 92.0
e 71 69 4.0
e 72 200 94.0
e 74 75 11.0
e 74 71 12.0
e 76 216 1.0
e 76 74 6.0
e 77 178 6.0
e 77 76 1.0
e 78 249 22.0
e 78 197 94.0
e 78 261 3.0
e 78 77 80.0
e 79 97 1.0
e 79 78 6.0
e 80 258 72.0
e 80 251 37.0
e 80 132 65.0
e 81 262 5.0
e 81 79 1.0
e 82 241 1.0
e 82 81 1.0
e 83 199 1.0
e 83 82 1.0
e 84 186 1.0
e 84 83 1.0
e 85 219 2.0
e 85 84 1.0
e 87 245 5.0
e 87 85 2.0
e 89 169 2.0
e 89 87 2.0
e 90 260 3.0
e 90 89 1.0
e 91 110 14.0
e 94 135 88.0
e 94 99 89.0
e 94 160 53.0
e 95 239 57.0
e 95 98 27.0
e 95 209 89.0
e 100 101 75.0
e 101 102 52.0
e 101 111 37.0
e 103 148 5.0
e 103 90 5.0
e 104 230 6.0
e 104 103 1.0
e 105 152 1.0
e 105 104 11.0
e 106 247 1.0
e 106 105 1.0
e 107 294 47.0
e 107 226 40.0
e 107 225 29.0
e 108 187 3.0
e 108 106 1.0
e 109 220 1.0
e 109 108 4.0
e 110 279 30.0
e 110 111 83.0
e 112 273 54.0
e 112 239 100.0
e 112 194 75.0
e 113 114 34.0
e 114 134 97.0
e 114 290 46.0
e 115 263 89.0
e 115 180 56.0
e 116 300 77.0
e 117 252 11.0
e 117 221 89.0
e 118 294 87.0
e 120 121 2.0
e 120 109 1.0
e 122 190 1.0
e 122 120 1.0
e 123 264 24.0
e 123 124 19.0
e 123 188 99.0
e 124 184 56.0
e 124 276 27.0
e 125 200 5.0
e 126 246 72.0
e 127 128 1.0
e 127 122 1.0
e 129 242 2.0
e 129 127 2.0
e 130 269 51.0
e 130 200 27.0
e 131 134 96.0
e 131 135 74.0
e 131 302 22.0
e 134 287 52.0
e 135 212 53.0
e 136 283 4.0
e 136 129 1.0
e 137 311 99.0
e 138 277 73.0
e 138 207 31.0
e 138 139 16.0
e 138 136 47.0
e 140 141 1.0
e 140 138 52.0
e 142 143 97.0
e 142 140 1.0
e 143 198 64.0
e 143 144 86.0
e 145 149 49.0
e 145 294 43.0
e 150 228 5.0
e 150 142 1.0
e 151 172 7.0
e 151 203 100.0
e 151 201 49.0
e 151 150 74.0
e 153 154 46.0
e 153 155 16.0
e 153 156 45.0
e 153 151 21.0
e 155 158 78.0
e 155 159 60.0
e 160 166 21.0
e 161 270 1.0
e 161 153 52.0
e 162 203 70.0
e 163 208 96.0
e 163 168 44.0
e 163 164 59.0
e 168 170 5.0
e 168 171 73.0
e 171 218 75.0
e 171 174 49.0
e 174 188 56.0
e 174 231 44.0
e 175 176 2.0
e 175 161 1.0
e 177 178 83.0
e 178 181 11.0
e 183 267 25.0
e 183 284 61.0
e 183 184 9.0
e 184 188 21.0
e 191 223 16.0
e 193 203 34.0
e 206 282 3.0
e 206 175 2.0
e 208 210 19.0
e 208 278 59.0
e 210 314 42.0
e 210 232 82.0
e 214 246 32.0
e 214 301 12.0
e 214 218 9.0
e 221 224 39.0
e 224 225 90.0
e 224 232 100.0
e 225 243 94.0
e 244 253 35.0
e 253 281 4.0
e 253 291 96.0
e 254 255 19.0
e 254 285 46.0
e 254 257 60.0
e 254 206 49.0
e 258 263 11.0
e 258 264 82.0
e 263 265 44.0
e 266 267 33.0
e 266 268 84.0
e 266 269 40.0
e 267 269 95.0
e 271 274 1.0
e 271 254 39.0
e 278 279 43.0
e 280 289 17.0
e 280 286 81.0
e 280 287 12.0
e 287 317 29.0
e 288 291 23.0
e 292 293 8.0
e 292 271 4.0
e 295 296 4.0
e 295 292 3.0
e 297 298 2.0
e 297 295 1.0
e 300 303 86.0
e 303 304 67.0
e 303 305 63.0
e 308 309 4.0
e 308 297 1.0
e 309 310 25.0
e 311 312 32.0
e 313 314 68.0
e 315 316 1.0
e 315 308 2.0
e 317 318 35.0
e 317 319 34.0
